// FEASIBLE
// COST 3138
nNurses=3138;
minHours=1;
maxPresence=12;
maxHours=10;
maxConsec=6;
hoursDay=24;
demand=[1037 1039 1031 1038 1047 1043 1048 1032 1050 1040 1044 1035 1035 1033 1040 1045 1040 1046 1034 1041 1036 1039 1050 1042];
